; benchmark generated from python API
(set-info :status unknown)
(declare-datatypes ((RealState 0)) (((RMk1 (rval1 Real)) (RMk2 (rval2 Real)))))
 (declare-fun yuscore2dollarskuscore5 () Real)
(declare-fun t3uscore0dollarskuscore1 () Real)
(declare-fun stuscore2dollarskuscore5 () Real)
(assert
 (let (($x194 (exists ((ts3uscore1_st RealState) (val!212 Real) )(let (($x242 (<= (+ (* (- 2.0) t3uscore0dollarskuscore1) yuscore2dollarskuscore5) 12.0)))
 (let (($x101 (= stuscore2dollarskuscore5 3.0)))
 (let (($x238 (= stuscore2dollarskuscore5 1.0)))
 (let (($x233 (or (or $x238 $x101) $x242)))
 (let (($x163 (<= yuscore2dollarskuscore5 12.0)))
 (let (($x205 (>= yuscore2dollarskuscore5 1.0)))
 (let (($x181 (= stuscore2dollarskuscore5 2.0)))
 (let (($x118 (> yuscore2dollarskuscore5 5.0)))
 (let (($x148 (>= t3uscore0dollarskuscore1 0.0)))
 (let (($x182 (and (<= 0.0 (rval2 ts3uscore1_st)) (<= (rval2 ts3uscore1_st) t3uscore0dollarskuscore1))))
 (let (($x56 (=> $x182 (>= (+ (* (- 2.0) (rval2 ts3uscore1_st)) yuscore2dollarskuscore5) 5.0))))
 (let (($x37 (=> (and (and (and (and (and $x56 $x148) $x118) $x181) $x205) $x163) $x233)))
 (let (($x94 (not (= ts3uscore1_st (RMk1 val!212)))))
 (and $x94 $x37)))))))))))))))
 ))
 (not $x194)))
(check-sat)
